SDVRP instances/custom_instances/p01_9_splitx10_0.vrp
NAME:p01_9_splitx10_
BEST_KNOWN: 0
COMMENT: 0
DIMENSION: 240
CAPACITY: 1600
EDGE_WEIGHT_FORMAT: FUNCTION
EDGE_WEIGHT_TYPE: EXACT_2D
NODE_COORD_SECTION
1 0.00000 0.00000
2 32 40
3 32 40
4 32 40
5 32 40
6 32 40
7 -15 0
8 -15 0
9 -15 0
10 -27 -18
11 -27 -18
12 -27 -18
13 -27 -18
14 -27 -18
15 -27 -18
16 -27 -18
17 -27 -18
18 36 29
19 36 29
20 36 29
21 36 29
22 36 29
23 44 21
24 44 21
25 44 21
26 44 21
27 44 -45
28 44 -45
29 44 -45
30 44 -45
31 -1 14
32 -1 14
33 -1 14
34 -1 14
35 -1 14
36 -1 14
37 -30 -27
38 -30 -27
39 -30 -27
40 -30 -27
41 -30 -27
42 36 12
43 36 12
44 36 12
45 36 12
46 -20 -42
47 -20 -42
48 -20 -42
49 -20 -42
50 -20 -42
51 -20 -42
52 -20 -42
53 -24 -22
54 -24 -22
55 -24 -22
56 -24 -22
57 -24 -22
58 -24 -22
59 -24 -22
60 26 7
61 26 7
62 26 7
63 26 7
64 34 48
65 34 48
66 -47 -14
67 -47 -14
68 -47 -14
69 -47 -14
70 -47 -14
71 -46 15
72 -46 15
73 -46 15
74 -46 15
75 -46 15
76 -46 15
77 -46 15
78 33 2
79 6 -26
80 6 -26
81 6 -26
82 6 -26
83 6 -26
84 -13 -4
85 -13 -4
86 -13 -4
87 -13 -4
88 -13 -4
89 -13 -4
90 -13 -4
91 30 -44
92 30 -44
93 30 -44
94 30 -44
95 30 -44
96 -29 7
97 -29 7
98 -29 7
99 -29 7
100 -29 7
101 -49 17
102 -49 17
103 -49 17
104 -49 17
105 31 -26
106 31 -26
107 31 -26
108 -21 10
109 -21 10
110 -21 10
111 -50 -10
112 -50 -10
113 -50 -10
114 -20 -25
115 -20 -25
116 -20 -25
117 -20 -25
118 -20 -25
119 -20 -25
120 -20 -25
121 12 -12
122 12 -12
123 12 -12
124 30 -49
125 30 -49
126 30 -49
127 30 -49
128 21 -36
129 21 -36
130 21 -36
131 -27 -30
132 -27 -30
133 -27 -30
134 -27 -30
135 -27 -30
136 23 -23
137 23 -23
138 23 -23
139 23 -23
140 23 -23
141 23 -23
142 -34 7
143 -34 7
144 -34 7
145 -34 7
146 -34 7
147 -34 7
148 36 -41
149 36 -41
150 36 -41
151 36 -41
152 36 -41
153 36 -41
154 -45 43
155 -45 43
156 -45 43
157 -45 43
158 -45 43
159 -45 43
160 -45 43
161 -32 -3
162 -32 -3
163 -32 -3
164 -32 -3
165 -32 -3
166 -32 -3
167 45 -38
168 45 -38
169 45 -38
170 45 -38
171 45 -38
172 45 -38
173 45 -38
174 47 10
175 47 10
176 47 10
177 47 10
178 47 10
179 47 10
180 26 50
181 26 50
182 26 50
183 26 50
184 26 50
185 -40 -20
186 -40 -20
187 -29 -41
188 -29 -41
189 -29 -41
190 10 29
191 10 29
192 10 29
193 10 29
194 10 29
195 10 29
196 10 29
197 5 29
198 5 29
199 5 29
200 5 29
201 5 29
202 5 29
203 5 29
204 35 -18
205 35 -18
206 -48 -48
207 -48 -48
208 -48 -48
209 -48 -48
210 -48 -48
211 -48 -48
212 -35 -46
213 -35 -46
214 -35 -46
215 -35 -46
216 -35 -46
217 21 44
218 21 44
219 21 44
220 21 44
221 44 -37
222 44 -37
223 -2 6
224 -2 6
225 -2 6
226 -2 6
227 -2 6
228 46 32
229 46 32
230 46 32
231 46 32
232 46 32
233 -39 -50
234 -39 -50
235 -39 -50
236 38 10
237 38 10
238 38 10
239 38 10
240 38 10
DEMAND_SECTION
1 0
2 320
3 16
4 16
5 16
6 2
7 320
8 160
9 80
10 320
11 320
12 80
13 16
14 16
15 16
16 16
17 6
18 160
19 16
20 16
21 16
22 12
23 320
24 80
25 16
26 14
27 160
28 80
29 16
30 14
31 320
32 16
33 16
34 16
35 16
36 6
37 320
38 16
39 16
40 16
41 2
42 320
43 160
44 16
45 14
46 320
47 320
48 80
49 16
50 16
51 16
52 12
53 320
54 160
55 16
56 16
57 16
58 16
59 6
60 320
61 160
62 16
63 14
64 320
65 80
66 320
67 160
68 16
69 16
70 8
71 320
72 160
73 16
74 16
75 16
76 16
77 6
78 320
79 160
80 80
81 16
82 16
83 8
84 320
85 160
86 80
87 16
88 16
89 16
90 12
91 320
92 160
93 80
94 16
95 14
96 320
97 160
98 80
99 16
100 14
101 160
102 80
103 16
104 14
105 320
106 320
107 160
108 160
109 80
110 10
111 320
112 16
113 4
114 320
115 160
116 16
117 16
118 16
119 16
120 6
121 320
122 16
123 14
124 320
125 160
126 16
127 14
128 320
129 320
130 80
131 320
132 160
133 16
134 16
135 8
136 320
137 320
138 80
139 16
140 16
141 8
142 320
143 320
144 16
145 16
146 16
147 2
148 320
149 160
150 16
151 16
152 16
153 12
154 320
155 320
156 80
157 16
158 16
159 16
160 12
161 320
162 16
163 16
164 16
165 16
166 6
167 320
168 160
169 16
170 16
171 16
172 16
173 6
174 320
175 80
176 16
177 16
178 16
179 2
180 320
181 320
182 16
183 16
184 8
185 320
186 80
187 320
188 16
189 14
190 320
191 320
192 16
193 16
194 16
195 16
196 6
197 320
198 320
199 80
200 16
201 16
202 16
203 12
204 320
205 10
206 320
207 80
208 16
209 16
210 16
211 12
212 320
213 160
214 80
215 16
216 14
217 320
218 80
219 16
220 4
221 320
222 80
223 320
224 320
225 80
226 16
227 14
228 320
229 80
230 16
231 16
232 8
233 320
234 16
235 14
236 320
237 160
238 16
239 16
240 8
DEPOT_SECTION
1
-1
EOF