SDVRP instances/custom_instances/p01_9_splitx10_0.sol
239 -1 2 4 3 5 63 64 227 230 229 231 228 20 21 18 19 17 -6 7 8 -12 16 11 10 9 14 15 13 89 83 87 86 88 85 84 -25 23 22 24 174 177 175 176 178 173 77 -30 35 31 33 32 34 198 199 201 197 200 196 202 195 191 193 194 190 -41 44 43 42 236 235 239 237 238 62 59 61 60 -47 45 46 48 51 50 49 186 187 188 130 -55 58 53 54 52 57 56 40 38 39 37 36 113 114 118 117 116 115 119 -71 75 76 72 70 73 74 101 103 102 100 155 154 153 156 158 159 157 -82 81 78 80 79 128 129 127 120 121 122 -91 90 92 93 94 124 125 123 126 151 147 148 -105 104 106 137 136 140 135 138 139 -109 108 107 99 95 96 97 98 144 142 143 146 145 141 162 165 163 164 161 -133 134 131 132 208 210 209 207 205 206 234 233 232 215 213 214 212 211 -150 149 152 29 28 26 27 172 169 168 166 170 171 167 220 221 204 203 -160 112 110 111 65 68 67 69 66 184 185 -179 182 180 183 181 218 216 217 219 192 189 -223 225 226 222 224 0 





OBJ=
1697.861
BEST_KNOWN=
0.000